488,140
1051,286
1108,623
1069,688
751,503
668,432
261,406
488,140
681,136
633,441
436,887
321,766
494,501
681,466
704,554
1069,688
1001,569
868,501
850,529
880,470
733,478
681,466
653,415
668,432
1001,569
1108,545
823,360
801,406
672,378
765,-127
1028,229
823,360
664,382
653,415
321,766
364,842
625,761
975,555
515,-107
765,-127
681,196
597,490
415,213
727,110
773,121
850,529
